\ Model S-WSTL formula: ((F[0.0, 4.0]^<lambda> ((x <= 12.0) &&^<lambda> (x >= 3.0))) &&^<lambda> (F[5.0, 10.0]^<lambda> ((x <= 9.0) &&^<lambda> (x >= 2.0))) &&^<lambda> (F[11.0, 15.0]^<lambda> ((x <= 12.0) &&^<lambda> (x >= 2.0))))
\ LP format - for model browsing. Use MPS format to capture full model detail.
Maximize
  rho_&&_2bx15f6422435167edc_0
Subject To
 R0: 1000 z_predicate_2bxd9200ef4c1e390a_0
   + rho_predicate_2bxd9200ef4c1e390a_0 + x_0 <= 1012
 R1: 1000 z_predicate_2bxd9200ef4c1e390a_0
   + rho_predicate_2bxd9200ef4c1e390a_0 + x_0 >= 12
 R2: x_0 - 1000 z_predicate_2dx22dd95ed78b4d217_0
   - rho_predicate_2dx22dd95ed78b4d217_0 >= -997
 R3: x_0 - 1000 z_predicate_2dx22dd95ed78b4d217_0
   - rho_predicate_2dx22dd95ed78b4d217_0 <= 3
 R4: rho_&&_2bx5fd6c8e1eefc4d1a_0
   - 0.1619536685214647 rho_predicate_2bxd9200ef4c1e390a_0 <= 0
 R5: z_&&_2bx5fd6c8e1eefc4d1a_0 - z_predicate_2bxd9200ef4c1e390a_0 <= 0
 R6: rho_&&_2bx5fd6c8e1eefc4d1a_0
   - 0.8380463314785354 rho_predicate_2dx22dd95ed78b4d217_0 <= 0
 R7: z_&&_2bx5fd6c8e1eefc4d1a_0 - z_predicate_2dx22dd95ed78b4d217_0 <= 0
 R8: z_&&_2bx5fd6c8e1eefc4d1a_0 - z_predicate_2bxd9200ef4c1e390a_0
   - z_predicate_2dx22dd95ed78b4d217_0 >= -1
 R9: 1000 z_predicate_2bxd9200ef4c1e390a_1
   + rho_predicate_2bxd9200ef4c1e390a_1 + x_1 <= 1012
 R10: 1000 z_predicate_2bxd9200ef4c1e390a_1
   + rho_predicate_2bxd9200ef4c1e390a_1 + x_1 >= 12
 R11: x_1 - 1000 z_predicate_2dx22dd95ed78b4d217_1
   - rho_predicate_2dx22dd95ed78b4d217_1 >= -997
 R12: x_1 - 1000 z_predicate_2dx22dd95ed78b4d217_1
   - rho_predicate_2dx22dd95ed78b4d217_1 <= 3
 R13: rho_&&_2bx5fd6c8e1eefc4d1a_1
   - 0.1619536685214647 rho_predicate_2bxd9200ef4c1e390a_1 <= 0
 R14: z_&&_2bx5fd6c8e1eefc4d1a_1 - z_predicate_2bxd9200ef4c1e390a_1 <= 0
 R15: rho_&&_2bx5fd6c8e1eefc4d1a_1
   - 0.8380463314785354 rho_predicate_2dx22dd95ed78b4d217_1 <= 0
 R16: z_&&_2bx5fd6c8e1eefc4d1a_1 - z_predicate_2dx22dd95ed78b4d217_1 <= 0
 R17: z_&&_2bx5fd6c8e1eefc4d1a_1 - z_predicate_2bxd9200ef4c1e390a_1
   - z_predicate_2dx22dd95ed78b4d217_1 >= -1
 R18: 1000 z_predicate_2bxd9200ef4c1e390a_2
   + rho_predicate_2bxd9200ef4c1e390a_2 + x_2 <= 1012
 R19: 1000 z_predicate_2bxd9200ef4c1e390a_2
   + rho_predicate_2bxd9200ef4c1e390a_2 + x_2 >= 12
 R20: x_2 - 1000 z_predicate_2dx22dd95ed78b4d217_2
   - rho_predicate_2dx22dd95ed78b4d217_2 >= -997
 R21: x_2 - 1000 z_predicate_2dx22dd95ed78b4d217_2
   - rho_predicate_2dx22dd95ed78b4d217_2 <= 3
 R22: rho_&&_2bx5fd6c8e1eefc4d1a_2
   - 0.1619536685214647 rho_predicate_2bxd9200ef4c1e390a_2 <= 0
 R23: z_&&_2bx5fd6c8e1eefc4d1a_2 - z_predicate_2bxd9200ef4c1e390a_2 <= 0
 R24: rho_&&_2bx5fd6c8e1eefc4d1a_2
   - 0.8380463314785354 rho_predicate_2dx22dd95ed78b4d217_2 <= 0
 R25: z_&&_2bx5fd6c8e1eefc4d1a_2 - z_predicate_2dx22dd95ed78b4d217_2 <= 0
 R26: z_&&_2bx5fd6c8e1eefc4d1a_2 - z_predicate_2bxd9200ef4c1e390a_2
   - z_predicate_2dx22dd95ed78b4d217_2 >= -1
 R27: 1000 z_predicate_2bxd9200ef4c1e390a_3
   + rho_predicate_2bxd9200ef4c1e390a_3 + x_3 <= 1012
 R28: 1000 z_predicate_2bxd9200ef4c1e390a_3
   + rho_predicate_2bxd9200ef4c1e390a_3 + x_3 >= 12
 R29: x_3 - 1000 z_predicate_2dx22dd95ed78b4d217_3
   - rho_predicate_2dx22dd95ed78b4d217_3 >= -997
 R30: x_3 - 1000 z_predicate_2dx22dd95ed78b4d217_3
   - rho_predicate_2dx22dd95ed78b4d217_3 <= 3
 R31: rho_&&_2bx5fd6c8e1eefc4d1a_3
   - 0.1619536685214647 rho_predicate_2bxd9200ef4c1e390a_3 <= 0
 R32: z_&&_2bx5fd6c8e1eefc4d1a_3 - z_predicate_2bxd9200ef4c1e390a_3 <= 0
 R33: rho_&&_2bx5fd6c8e1eefc4d1a_3
   - 0.8380463314785354 rho_predicate_2dx22dd95ed78b4d217_3 <= 0
 R34: z_&&_2bx5fd6c8e1eefc4d1a_3 - z_predicate_2dx22dd95ed78b4d217_3 <= 0
 R35: z_&&_2bx5fd6c8e1eefc4d1a_3 - z_predicate_2bxd9200ef4c1e390a_3
   - z_predicate_2dx22dd95ed78b4d217_3 >= -1
 R36: 1000 z_predicate_2bxd9200ef4c1e390a_4
   + rho_predicate_2bxd9200ef4c1e390a_4 + x_4 <= 1012
 R37: 1000 z_predicate_2bxd9200ef4c1e390a_4
   + rho_predicate_2bxd9200ef4c1e390a_4 + x_4 >= 12
 R38: x_4 - 1000 z_predicate_2dx22dd95ed78b4d217_4
   - rho_predicate_2dx22dd95ed78b4d217_4 >= -997
 R39: x_4 - 1000 z_predicate_2dx22dd95ed78b4d217_4
   - rho_predicate_2dx22dd95ed78b4d217_4 <= 3
 R40: rho_&&_2bx5fd6c8e1eefc4d1a_4
   - 0.1619536685214647 rho_predicate_2bxd9200ef4c1e390a_4 <= 0
 R41: z_&&_2bx5fd6c8e1eefc4d1a_4 - z_predicate_2bxd9200ef4c1e390a_4 <= 0
 R42: rho_&&_2bx5fd6c8e1eefc4d1a_4
   - 0.8380463314785354 rho_predicate_2dx22dd95ed78b4d217_4 <= 0
 R43: z_&&_2bx5fd6c8e1eefc4d1a_4 - z_predicate_2dx22dd95ed78b4d217_4 <= 0
 R44: z_&&_2bx5fd6c8e1eefc4d1a_4 - z_predicate_2bxd9200ef4c1e390a_4
   - z_predicate_2dx22dd95ed78b4d217_4 >= -1
 R45: rho_F_2dx2db193604f764fb_0 - 0.9 rho_&&_2bx5fd6c8e1eefc4d1a_0
   + 1000 zhat_&&_2bx5fd6c8e1eefc4d1a_2dx2db193604f764fb_0 <= 1000
 R46: - z_&&_2bx5fd6c8e1eefc4d1a_0
   + zhat_&&_2bx5fd6c8e1eefc4d1a_2dx2db193604f764fb_0 <= 0
 R47: z_F_2dx2db193604f764fb_0 - z_&&_2bx5fd6c8e1eefc4d1a_0 >= 0
 R48: rho_F_2dx2db193604f764fb_0 - 0.9 rho_&&_2bx5fd6c8e1eefc4d1a_1
   + 1000 zhat_&&_2bx5fd6c8e1eefc4d1a_2dx2db193604f764fb_1 <= 1000
 R49: - z_&&_2bx5fd6c8e1eefc4d1a_1
   + zhat_&&_2bx5fd6c8e1eefc4d1a_2dx2db193604f764fb_1 <= 0
 R50: z_F_2dx2db193604f764fb_0 - z_&&_2bx5fd6c8e1eefc4d1a_1 >= 0
 R51: rho_F_2dx2db193604f764fb_0 - 0.5 rho_&&_2bx5fd6c8e1eefc4d1a_2
   + 1000 zhat_&&_2bx5fd6c8e1eefc4d1a_2dx2db193604f764fb_2 <= 1000
 R52: - z_&&_2bx5fd6c8e1eefc4d1a_2
   + zhat_&&_2bx5fd6c8e1eefc4d1a_2dx2db193604f764fb_2 <= 0
 R53: z_F_2dx2db193604f764fb_0 - z_&&_2bx5fd6c8e1eefc4d1a_2 >= 0
 R54: rho_F_2dx2db193604f764fb_0 - 0.1 rho_&&_2bx5fd6c8e1eefc4d1a_3
   + 1000 zhat_&&_2bx5fd6c8e1eefc4d1a_2dx2db193604f764fb_3 <= 1000
 R55: - z_&&_2bx5fd6c8e1eefc4d1a_3
   + zhat_&&_2bx5fd6c8e1eefc4d1a_2dx2db193604f764fb_3 <= 0
 R56: z_F_2dx2db193604f764fb_0 - z_&&_2bx5fd6c8e1eefc4d1a_3 >= 0
 R57: rho_F_2dx2db193604f764fb_0 - 0.1 rho_&&_2bx5fd6c8e1eefc4d1a_4
   + 1000 zhat_&&_2bx5fd6c8e1eefc4d1a_2dx2db193604f764fb_4 <= 1000
 R58: - z_&&_2bx5fd6c8e1eefc4d1a_4
   + zhat_&&_2bx5fd6c8e1eefc4d1a_2dx2db193604f764fb_4 <= 0
 R59: z_F_2dx2db193604f764fb_0 - z_&&_2bx5fd6c8e1eefc4d1a_4 >= 0
 R60: z_F_2dx2db193604f764fb_0 - z_&&_2bx5fd6c8e1eefc4d1a_0
   - z_&&_2bx5fd6c8e1eefc4d1a_1 - z_&&_2bx5fd6c8e1eefc4d1a_2
   - z_&&_2bx5fd6c8e1eefc4d1a_3 - z_&&_2bx5fd6c8e1eefc4d1a_4 <= 0
 R61: - z_F_2dx2db193604f764fb_0
   + zhat_&&_2bx5fd6c8e1eefc4d1a_2dx2db193604f764fb_0
   + zhat_&&_2bx5fd6c8e1eefc4d1a_2dx2db193604f764fb_1
   + zhat_&&_2bx5fd6c8e1eefc4d1a_2dx2db193604f764fb_2
   + zhat_&&_2bx5fd6c8e1eefc4d1a_2dx2db193604f764fb_3
   + zhat_&&_2bx5fd6c8e1eefc4d1a_2dx2db193604f764fb_4 >= 0
 R62: 1000 z_predicate_2dxa75a8bafccdc3cb_5
   + rho_predicate_2dxa75a8bafccdc3cb_5 + x_5 <= 1009
 R63: 1000 z_predicate_2dxa75a8bafccdc3cb_5
   + rho_predicate_2dxa75a8bafccdc3cb_5 + x_5 >= 9
 R64: x_5 - 1000 z_predicate_2dx14fcdaada9e9bb5e_5
   - rho_predicate_2dx14fcdaada9e9bb5e_5 >= -998
 R65: x_5 - 1000 z_predicate_2dx14fcdaada9e9bb5e_5
   - rho_predicate_2dx14fcdaada9e9bb5e_5 <= 2
 R66: rho_&&_2bx4e17493b83d5f40e_5
   - 0.1619536685214647 rho_predicate_2dxa75a8bafccdc3cb_5 <= 0
 R67: z_&&_2bx4e17493b83d5f40e_5 - z_predicate_2dxa75a8bafccdc3cb_5 <= 0
 R68: rho_&&_2bx4e17493b83d5f40e_5
   - 0.8380463314785354 rho_predicate_2dx14fcdaada9e9bb5e_5 <= 0
 R69: z_&&_2bx4e17493b83d5f40e_5 - z_predicate_2dx14fcdaada9e9bb5e_5 <= 0
 R70: z_&&_2bx4e17493b83d5f40e_5 - z_predicate_2dxa75a8bafccdc3cb_5
   - z_predicate_2dx14fcdaada9e9bb5e_5 >= -1
 R71: 1000 z_predicate_2dxa75a8bafccdc3cb_6
   + rho_predicate_2dxa75a8bafccdc3cb_6 + x_6 <= 1009
 R72: 1000 z_predicate_2dxa75a8bafccdc3cb_6
   + rho_predicate_2dxa75a8bafccdc3cb_6 + x_6 >= 9
 R73: x_6 - 1000 z_predicate_2dx14fcdaada9e9bb5e_6
   - rho_predicate_2dx14fcdaada9e9bb5e_6 >= -998
 R74: x_6 - 1000 z_predicate_2dx14fcdaada9e9bb5e_6
   - rho_predicate_2dx14fcdaada9e9bb5e_6 <= 2
 R75: rho_&&_2bx4e17493b83d5f40e_6
   - 0.1619536685214647 rho_predicate_2dxa75a8bafccdc3cb_6 <= 0
 R76: z_&&_2bx4e17493b83d5f40e_6 - z_predicate_2dxa75a8bafccdc3cb_6 <= 0
 R77: rho_&&_2bx4e17493b83d5f40e_6
   - 0.8380463314785354 rho_predicate_2dx14fcdaada9e9bb5e_6 <= 0
 R78: z_&&_2bx4e17493b83d5f40e_6 - z_predicate_2dx14fcdaada9e9bb5e_6 <= 0
 R79: z_&&_2bx4e17493b83d5f40e_6 - z_predicate_2dxa75a8bafccdc3cb_6
   - z_predicate_2dx14fcdaada9e9bb5e_6 >= -1
 R80: 1000 z_predicate_2dxa75a8bafccdc3cb_7
   + rho_predicate_2dxa75a8bafccdc3cb_7 + x_7 <= 1009
 R81: 1000 z_predicate_2dxa75a8bafccdc3cb_7
   + rho_predicate_2dxa75a8bafccdc3cb_7 + x_7 >= 9
 R82: x_7 - 1000 z_predicate_2dx14fcdaada9e9bb5e_7
   - rho_predicate_2dx14fcdaada9e9bb5e_7 >= -998
 R83: x_7 - 1000 z_predicate_2dx14fcdaada9e9bb5e_7
   - rho_predicate_2dx14fcdaada9e9bb5e_7 <= 2
 R84: rho_&&_2bx4e17493b83d5f40e_7
   - 0.1619536685214647 rho_predicate_2dxa75a8bafccdc3cb_7 <= 0
 R85: z_&&_2bx4e17493b83d5f40e_7 - z_predicate_2dxa75a8bafccdc3cb_7 <= 0
 R86: rho_&&_2bx4e17493b83d5f40e_7
   - 0.8380463314785354 rho_predicate_2dx14fcdaada9e9bb5e_7 <= 0
 R87: z_&&_2bx4e17493b83d5f40e_7 - z_predicate_2dx14fcdaada9e9bb5e_7 <= 0
 R88: z_&&_2bx4e17493b83d5f40e_7 - z_predicate_2dxa75a8bafccdc3cb_7
   - z_predicate_2dx14fcdaada9e9bb5e_7 >= -1
 R89: 1000 z_predicate_2dxa75a8bafccdc3cb_8
   + rho_predicate_2dxa75a8bafccdc3cb_8 + x_8 <= 1009
 R90: 1000 z_predicate_2dxa75a8bafccdc3cb_8
   + rho_predicate_2dxa75a8bafccdc3cb_8 + x_8 >= 9
 R91: x_8 - 1000 z_predicate_2dx14fcdaada9e9bb5e_8
   - rho_predicate_2dx14fcdaada9e9bb5e_8 >= -998
 R92: x_8 - 1000 z_predicate_2dx14fcdaada9e9bb5e_8
   - rho_predicate_2dx14fcdaada9e9bb5e_8 <= 2
 R93: rho_&&_2bx4e17493b83d5f40e_8
   - 0.1619536685214647 rho_predicate_2dxa75a8bafccdc3cb_8 <= 0
 R94: z_&&_2bx4e17493b83d5f40e_8 - z_predicate_2dxa75a8bafccdc3cb_8 <= 0
 R95: rho_&&_2bx4e17493b83d5f40e_8
   - 0.8380463314785354 rho_predicate_2dx14fcdaada9e9bb5e_8 <= 0
 R96: z_&&_2bx4e17493b83d5f40e_8 - z_predicate_2dx14fcdaada9e9bb5e_8 <= 0
 R97: z_&&_2bx4e17493b83d5f40e_8 - z_predicate_2dxa75a8bafccdc3cb_8
   - z_predicate_2dx14fcdaada9e9bb5e_8 >= -1
 R98: 1000 z_predicate_2dxa75a8bafccdc3cb_9
   + rho_predicate_2dxa75a8bafccdc3cb_9 + x_9 <= 1009
 R99: 1000 z_predicate_2dxa75a8bafccdc3cb_9
   + rho_predicate_2dxa75a8bafccdc3cb_9 + x_9 >= 9
 R100: x_9 - 1000 z_predicate_2dx14fcdaada9e9bb5e_9
   - rho_predicate_2dx14fcdaada9e9bb5e_9 >= -998
 R101: x_9 - 1000 z_predicate_2dx14fcdaada9e9bb5e_9
   - rho_predicate_2dx14fcdaada9e9bb5e_9 <= 2
 R102: rho_&&_2bx4e17493b83d5f40e_9
   - 0.1619536685214647 rho_predicate_2dxa75a8bafccdc3cb_9 <= 0
 R103: z_&&_2bx4e17493b83d5f40e_9 - z_predicate_2dxa75a8bafccdc3cb_9 <= 0
 R104: rho_&&_2bx4e17493b83d5f40e_9
   - 0.8380463314785354 rho_predicate_2dx14fcdaada9e9bb5e_9 <= 0
 R105: z_&&_2bx4e17493b83d5f40e_9 - z_predicate_2dx14fcdaada9e9bb5e_9 <= 0
 R106: z_&&_2bx4e17493b83d5f40e_9 - z_predicate_2dxa75a8bafccdc3cb_9
   - z_predicate_2dx14fcdaada9e9bb5e_9 >= -1
 R107: 1000 z_predicate_2dxa75a8bafccdc3cb_10
   + rho_predicate_2dxa75a8bafccdc3cb_10 + x_10 <= 1009
 R108: 1000 z_predicate_2dxa75a8bafccdc3cb_10
   + rho_predicate_2dxa75a8bafccdc3cb_10 + x_10 >= 9
 R109: x_10 - 1000 z_predicate_2dx14fcdaada9e9bb5e_10
   - rho_predicate_2dx14fcdaada9e9bb5e_10 >= -998
 R110: x_10 - 1000 z_predicate_2dx14fcdaada9e9bb5e_10
   - rho_predicate_2dx14fcdaada9e9bb5e_10 <= 2
 R111: rho_&&_2bx4e17493b83d5f40e_10
   - 0.1619536685214647 rho_predicate_2dxa75a8bafccdc3cb_10 <= 0
 R112: z_&&_2bx4e17493b83d5f40e_10 - z_predicate_2dxa75a8bafccdc3cb_10
   <= 0
 R113: rho_&&_2bx4e17493b83d5f40e_10
   - 0.8380463314785354 rho_predicate_2dx14fcdaada9e9bb5e_10 <= 0
 R114: z_&&_2bx4e17493b83d5f40e_10 - z_predicate_2dx14fcdaada9e9bb5e_10
   <= 0
 R115: z_&&_2bx4e17493b83d5f40e_10 - z_predicate_2dxa75a8bafccdc3cb_10
   - z_predicate_2dx14fcdaada9e9bb5e_10 >= -1
 R116: rho_F_2bxb6d4e08a16f857a_0 - 0.9 rho_&&_2bx4e17493b83d5f40e_5
   + 1000 zhat_&&_2bx4e17493b83d5f40e_2bxb6d4e08a16f857a_5 <= 1000
 R117: - z_&&_2bx4e17493b83d5f40e_5
   + zhat_&&_2bx4e17493b83d5f40e_2bxb6d4e08a16f857a_5 <= 0
 R118: z_F_2bxb6d4e08a16f857a_0 - z_&&_2bx4e17493b83d5f40e_5 >= 0
 R119: rho_F_2bxb6d4e08a16f857a_0 - 0.9 rho_&&_2bx4e17493b83d5f40e_6
   + 1000 zhat_&&_2bx4e17493b83d5f40e_2bxb6d4e08a16f857a_6 <= 1000
 R120: - z_&&_2bx4e17493b83d5f40e_6
   + zhat_&&_2bx4e17493b83d5f40e_2bxb6d4e08a16f857a_6 <= 0
 R121: z_F_2bxb6d4e08a16f857a_0 - z_&&_2bx4e17493b83d5f40e_6 >= 0
 R122: rho_F_2bxb6d4e08a16f857a_0 - 0.5 rho_&&_2bx4e17493b83d5f40e_7
   + 1000 zhat_&&_2bx4e17493b83d5f40e_2bxb6d4e08a16f857a_7 <= 1000
 R123: - z_&&_2bx4e17493b83d5f40e_7
   + zhat_&&_2bx4e17493b83d5f40e_2bxb6d4e08a16f857a_7 <= 0
 R124: z_F_2bxb6d4e08a16f857a_0 - z_&&_2bx4e17493b83d5f40e_7 >= 0
 R125: rho_F_2bxb6d4e08a16f857a_0 - 0.1 rho_&&_2bx4e17493b83d5f40e_8
   + 1000 zhat_&&_2bx4e17493b83d5f40e_2bxb6d4e08a16f857a_8 <= 1000
 R126: - z_&&_2bx4e17493b83d5f40e_8
   + zhat_&&_2bx4e17493b83d5f40e_2bxb6d4e08a16f857a_8 <= 0
 R127: z_F_2bxb6d4e08a16f857a_0 - z_&&_2bx4e17493b83d5f40e_8 >= 0
 R128: rho_F_2bxb6d4e08a16f857a_0 - 0.1 rho_&&_2bx4e17493b83d5f40e_9
   + 1000 zhat_&&_2bx4e17493b83d5f40e_2bxb6d4e08a16f857a_9 <= 1000
 R129: - z_&&_2bx4e17493b83d5f40e_9
   + zhat_&&_2bx4e17493b83d5f40e_2bxb6d4e08a16f857a_9 <= 0
 R130: z_F_2bxb6d4e08a16f857a_0 - z_&&_2bx4e17493b83d5f40e_9 >= 0
 R131: rho_F_2bxb6d4e08a16f857a_0 - 0.9 rho_&&_2bx4e17493b83d5f40e_10
   + 1000 zhat_&&_2bx4e17493b83d5f40e_2bxb6d4e08a16f857a_10 <= 1000
 R132: - z_&&_2bx4e17493b83d5f40e_10
   + zhat_&&_2bx4e17493b83d5f40e_2bxb6d4e08a16f857a_10 <= 0
 R133: z_F_2bxb6d4e08a16f857a_0 - z_&&_2bx4e17493b83d5f40e_10 >= 0
 R134: z_F_2bxb6d4e08a16f857a_0 - z_&&_2bx4e17493b83d5f40e_5
   - z_&&_2bx4e17493b83d5f40e_6 - z_&&_2bx4e17493b83d5f40e_7
   - z_&&_2bx4e17493b83d5f40e_8 - z_&&_2bx4e17493b83d5f40e_9
   - z_&&_2bx4e17493b83d5f40e_10 <= 0
 R135: - z_F_2bxb6d4e08a16f857a_0
   + zhat_&&_2bx4e17493b83d5f40e_2bxb6d4e08a16f857a_5
   + zhat_&&_2bx4e17493b83d5f40e_2bxb6d4e08a16f857a_6
   + zhat_&&_2bx4e17493b83d5f40e_2bxb6d4e08a16f857a_7
   + zhat_&&_2bx4e17493b83d5f40e_2bxb6d4e08a16f857a_8
   + zhat_&&_2bx4e17493b83d5f40e_2bxb6d4e08a16f857a_9
   + zhat_&&_2bx4e17493b83d5f40e_2bxb6d4e08a16f857a_10 >= 0
 R136: 1000 z_predicate_2bxd9200ef4c1e390a_11
   + rho_predicate_2bxd9200ef4c1e390a_11 + x_11 <= 1012
 R137: 1000 z_predicate_2bxd9200ef4c1e390a_11
   + rho_predicate_2bxd9200ef4c1e390a_11 + x_11 >= 12
 R138: x_11 - 1000 z_predicate_2dx14fcdaada9e9bb5e_11
   - rho_predicate_2dx14fcdaada9e9bb5e_11 >= -998
 R139: x_11 - 1000 z_predicate_2dx14fcdaada9e9bb5e_11
   - rho_predicate_2dx14fcdaada9e9bb5e_11 <= 2
 R140: rho_&&_2dx1554a434425b3bb5_11
   - 0.1619536685214647 rho_predicate_2bxd9200ef4c1e390a_11 <= 0
 R141: z_&&_2dx1554a434425b3bb5_11 - z_predicate_2bxd9200ef4c1e390a_11
   <= 0
 R142: rho_&&_2dx1554a434425b3bb5_11
   - 0.8380463314785354 rho_predicate_2dx14fcdaada9e9bb5e_11 <= 0
 R143: z_&&_2dx1554a434425b3bb5_11 - z_predicate_2dx14fcdaada9e9bb5e_11
   <= 0
 R144: z_&&_2dx1554a434425b3bb5_11 - z_predicate_2bxd9200ef4c1e390a_11
   - z_predicate_2dx14fcdaada9e9bb5e_11 >= -1
 R145: 1000 z_predicate_2bxd9200ef4c1e390a_12
   + rho_predicate_2bxd9200ef4c1e390a_12 + x_12 <= 1012
 R146: 1000 z_predicate_2bxd9200ef4c1e390a_12
   + rho_predicate_2bxd9200ef4c1e390a_12 + x_12 >= 12
 R147: x_12 - 1000 z_predicate_2dx14fcdaada9e9bb5e_12
   - rho_predicate_2dx14fcdaada9e9bb5e_12 >= -998
 R148: x_12 - 1000 z_predicate_2dx14fcdaada9e9bb5e_12
   - rho_predicate_2dx14fcdaada9e9bb5e_12 <= 2
 R149: rho_&&_2dx1554a434425b3bb5_12
   - 0.1619536685214647 rho_predicate_2bxd9200ef4c1e390a_12 <= 0
 R150: z_&&_2dx1554a434425b3bb5_12 - z_predicate_2bxd9200ef4c1e390a_12
   <= 0
 R151: rho_&&_2dx1554a434425b3bb5_12
   - 0.8380463314785354 rho_predicate_2dx14fcdaada9e9bb5e_12 <= 0
 R152: z_&&_2dx1554a434425b3bb5_12 - z_predicate_2dx14fcdaada9e9bb5e_12
   <= 0
 R153: z_&&_2dx1554a434425b3bb5_12 - z_predicate_2bxd9200ef4c1e390a_12
   - z_predicate_2dx14fcdaada9e9bb5e_12 >= -1
 R154: 1000 z_predicate_2bxd9200ef4c1e390a_13
   + rho_predicate_2bxd9200ef4c1e390a_13 + x_13 <= 1012
 R155: 1000 z_predicate_2bxd9200ef4c1e390a_13
   + rho_predicate_2bxd9200ef4c1e390a_13 + x_13 >= 12
 R156: x_13 - 1000 z_predicate_2dx14fcdaada9e9bb5e_13
   - rho_predicate_2dx14fcdaada9e9bb5e_13 >= -998
 R157: x_13 - 1000 z_predicate_2dx14fcdaada9e9bb5e_13
   - rho_predicate_2dx14fcdaada9e9bb5e_13 <= 2
 R158: rho_&&_2dx1554a434425b3bb5_13
   - 0.1619536685214647 rho_predicate_2bxd9200ef4c1e390a_13 <= 0
 R159: z_&&_2dx1554a434425b3bb5_13 - z_predicate_2bxd9200ef4c1e390a_13
   <= 0
 R160: rho_&&_2dx1554a434425b3bb5_13
   - 0.8380463314785354 rho_predicate_2dx14fcdaada9e9bb5e_13 <= 0
 R161: z_&&_2dx1554a434425b3bb5_13 - z_predicate_2dx14fcdaada9e9bb5e_13
   <= 0
 R162: z_&&_2dx1554a434425b3bb5_13 - z_predicate_2bxd9200ef4c1e390a_13
   - z_predicate_2dx14fcdaada9e9bb5e_13 >= -1
 R163: 1000 z_predicate_2bxd9200ef4c1e390a_14
   + rho_predicate_2bxd9200ef4c1e390a_14 + x_14 <= 1012
 R164: 1000 z_predicate_2bxd9200ef4c1e390a_14
   + rho_predicate_2bxd9200ef4c1e390a_14 + x_14 >= 12
 R165: x_14 - 1000 z_predicate_2dx14fcdaada9e9bb5e_14
   - rho_predicate_2dx14fcdaada9e9bb5e_14 >= -998
 R166: x_14 - 1000 z_predicate_2dx14fcdaada9e9bb5e_14
   - rho_predicate_2dx14fcdaada9e9bb5e_14 <= 2
 R167: rho_&&_2dx1554a434425b3bb5_14
   - 0.1619536685214647 rho_predicate_2bxd9200ef4c1e390a_14 <= 0
 R168: z_&&_2dx1554a434425b3bb5_14 - z_predicate_2bxd9200ef4c1e390a_14
   <= 0
 R169: rho_&&_2dx1554a434425b3bb5_14
   - 0.8380463314785354 rho_predicate_2dx14fcdaada9e9bb5e_14 <= 0
 R170: z_&&_2dx1554a434425b3bb5_14 - z_predicate_2dx14fcdaada9e9bb5e_14
   <= 0
 R171: z_&&_2dx1554a434425b3bb5_14 - z_predicate_2bxd9200ef4c1e390a_14
   - z_predicate_2dx14fcdaada9e9bb5e_14 >= -1
 R172: 1000 z_predicate_2bxd9200ef4c1e390a_15
   + rho_predicate_2bxd9200ef4c1e390a_15 + x_15 <= 1012
 R173: 1000 z_predicate_2bxd9200ef4c1e390a_15
   + rho_predicate_2bxd9200ef4c1e390a_15 + x_15 >= 12
 R174: x_15 - 1000 z_predicate_2dx14fcdaada9e9bb5e_15
   - rho_predicate_2dx14fcdaada9e9bb5e_15 >= -998
 R175: x_15 - 1000 z_predicate_2dx14fcdaada9e9bb5e_15
   - rho_predicate_2dx14fcdaada9e9bb5e_15 <= 2
 R176: rho_&&_2dx1554a434425b3bb5_15
   - 0.1619536685214647 rho_predicate_2bxd9200ef4c1e390a_15 <= 0
 R177: z_&&_2dx1554a434425b3bb5_15 - z_predicate_2bxd9200ef4c1e390a_15
   <= 0
 R178: rho_&&_2dx1554a434425b3bb5_15
   - 0.8380463314785354 rho_predicate_2dx14fcdaada9e9bb5e_15 <= 0
 R179: z_&&_2dx1554a434425b3bb5_15 - z_predicate_2dx14fcdaada9e9bb5e_15
   <= 0
 R180: z_&&_2dx1554a434425b3bb5_15 - z_predicate_2bxd9200ef4c1e390a_15
   - z_predicate_2dx14fcdaada9e9bb5e_15 >= -1
 R181: rho_F_2bx2eb78af1d3b8f1e8_0 - 0.9 rho_&&_2dx1554a434425b3bb5_11
   + 1000 zhat_&&_2dx1554a434425b3bb5_2bx2eb78af1d3b8f1e8_11 <= 1000
 R182: - z_&&_2dx1554a434425b3bb5_11
   + zhat_&&_2dx1554a434425b3bb5_2bx2eb78af1d3b8f1e8_11 <= 0
 R183: z_F_2bx2eb78af1d3b8f1e8_0 - z_&&_2dx1554a434425b3bb5_11 >= 0
 R184: rho_F_2bx2eb78af1d3b8f1e8_0 - 0.5 rho_&&_2dx1554a434425b3bb5_12
   + 1000 zhat_&&_2dx1554a434425b3bb5_2bx2eb78af1d3b8f1e8_12 <= 1000
 R185: - z_&&_2dx1554a434425b3bb5_12
   + zhat_&&_2dx1554a434425b3bb5_2bx2eb78af1d3b8f1e8_12 <= 0
 R186: z_F_2bx2eb78af1d3b8f1e8_0 - z_&&_2dx1554a434425b3bb5_12 >= 0
 R187: rho_F_2bx2eb78af1d3b8f1e8_0 - 0.1 rho_&&_2dx1554a434425b3bb5_13
   + 1000 zhat_&&_2dx1554a434425b3bb5_2bx2eb78af1d3b8f1e8_13 <= 1000
 R188: - z_&&_2dx1554a434425b3bb5_13
   + zhat_&&_2dx1554a434425b3bb5_2bx2eb78af1d3b8f1e8_13 <= 0
 R189: z_F_2bx2eb78af1d3b8f1e8_0 - z_&&_2dx1554a434425b3bb5_13 >= 0
 R190: rho_F_2bx2eb78af1d3b8f1e8_0 - 0.1 rho_&&_2dx1554a434425b3bb5_14
   + 1000 zhat_&&_2dx1554a434425b3bb5_2bx2eb78af1d3b8f1e8_14 <= 1000
 R191: - z_&&_2dx1554a434425b3bb5_14
   + zhat_&&_2dx1554a434425b3bb5_2bx2eb78af1d3b8f1e8_14 <= 0
 R192: z_F_2bx2eb78af1d3b8f1e8_0 - z_&&_2dx1554a434425b3bb5_14 >= 0
 R193: rho_F_2bx2eb78af1d3b8f1e8_0 - 0.1 rho_&&_2dx1554a434425b3bb5_15
   + 1000 zhat_&&_2dx1554a434425b3bb5_2bx2eb78af1d3b8f1e8_15 <= 1000
 R194: - z_&&_2dx1554a434425b3bb5_15
   + zhat_&&_2dx1554a434425b3bb5_2bx2eb78af1d3b8f1e8_15 <= 0
 R195: z_F_2bx2eb78af1d3b8f1e8_0 - z_&&_2dx1554a434425b3bb5_15 >= 0
 R196: z_F_2bx2eb78af1d3b8f1e8_0 - z_&&_2dx1554a434425b3bb5_11
   - z_&&_2dx1554a434425b3bb5_12 - z_&&_2dx1554a434425b3bb5_13
   - z_&&_2dx1554a434425b3bb5_14 - z_&&_2dx1554a434425b3bb5_15 <= 0
 R197: - z_F_2bx2eb78af1d3b8f1e8_0
   + zhat_&&_2dx1554a434425b3bb5_2bx2eb78af1d3b8f1e8_11
   + zhat_&&_2dx1554a434425b3bb5_2bx2eb78af1d3b8f1e8_12
   + zhat_&&_2dx1554a434425b3bb5_2bx2eb78af1d3b8f1e8_13
   + zhat_&&_2dx1554a434425b3bb5_2bx2eb78af1d3b8f1e8_14
   + zhat_&&_2dx1554a434425b3bb5_2bx2eb78af1d3b8f1e8_15 >= 0
 R198: rho_&&_2bx15f6422435167edc_0 - rho_F_2dx2db193604f764fb_0 <= 0
 R199: z_&&_2bx15f6422435167edc_0 - z_F_2dx2db193604f764fb_0 <= 0
 R200: rho_&&_2bx15f6422435167edc_0 - rho_F_2bxb6d4e08a16f857a_0 <= 0
 R201: z_&&_2bx15f6422435167edc_0 - z_F_2bxb6d4e08a16f857a_0 <= 0
 R202: rho_&&_2bx15f6422435167edc_0 - rho_F_2bx2eb78af1d3b8f1e8_0 <= 0
 R203: z_&&_2bx15f6422435167edc_0 - z_F_2bx2eb78af1d3b8f1e8_0 <= 0
 R204: z_&&_2bx15f6422435167edc_0 - z_F_2dx2db193604f764fb_0
   - z_F_2bxb6d4e08a16f857a_0 - z_F_2bx2eb78af1d3b8f1e8_0 >= -2
 formula_satisfaction: z_&&_2bx15f6422435167edc_0 = 1
Bounds
 z_&&_2bx15f6422435167edc_0 <= 1
 rho_&&_2bx15f6422435167edc_0 free
 z_F_2dx2db193604f764fb_0 <= 1
 rho_F_2dx2db193604f764fb_0 free
 z_&&_2bx5fd6c8e1eefc4d1a_0 <= 1
 rho_&&_2bx5fd6c8e1eefc4d1a_0 free
 rho_predicate_2bxd9200ef4c1e390a_0 free
 -9 <= x_0 <= 9
 rho_predicate_2dx22dd95ed78b4d217_0 free
 z_&&_2bx5fd6c8e1eefc4d1a_1 <= 1
 rho_&&_2bx5fd6c8e1eefc4d1a_1 free
 rho_predicate_2bxd9200ef4c1e390a_1 free
 -9 <= x_1 <= 9
 rho_predicate_2dx22dd95ed78b4d217_1 free
 z_&&_2bx5fd6c8e1eefc4d1a_2 <= 1
 rho_&&_2bx5fd6c8e1eefc4d1a_2 free
 rho_predicate_2bxd9200ef4c1e390a_2 free
 -9 <= x_2 <= 9
 rho_predicate_2dx22dd95ed78b4d217_2 free
 z_&&_2bx5fd6c8e1eefc4d1a_3 <= 1
 rho_&&_2bx5fd6c8e1eefc4d1a_3 free
 rho_predicate_2bxd9200ef4c1e390a_3 free
 -9 <= x_3 <= 9
 rho_predicate_2dx22dd95ed78b4d217_3 free
 z_&&_2bx5fd6c8e1eefc4d1a_4 <= 1
 rho_&&_2bx5fd6c8e1eefc4d1a_4 free
 rho_predicate_2bxd9200ef4c1e390a_4 free
 -9 <= x_4 <= 9
 rho_predicate_2dx22dd95ed78b4d217_4 free
 z_F_2bxb6d4e08a16f857a_0 <= 1
 rho_F_2bxb6d4e08a16f857a_0 free
 z_&&_2bx4e17493b83d5f40e_5 <= 1
 rho_&&_2bx4e17493b83d5f40e_5 free
 rho_predicate_2dxa75a8bafccdc3cb_5 free
 -9 <= x_5 <= 9
 rho_predicate_2dx14fcdaada9e9bb5e_5 free
 z_&&_2bx4e17493b83d5f40e_6 <= 1
 rho_&&_2bx4e17493b83d5f40e_6 free
 rho_predicate_2dxa75a8bafccdc3cb_6 free
 -9 <= x_6 <= 9
 rho_predicate_2dx14fcdaada9e9bb5e_6 free
 z_&&_2bx4e17493b83d5f40e_7 <= 1
 rho_&&_2bx4e17493b83d5f40e_7 free
 rho_predicate_2dxa75a8bafccdc3cb_7 free
 -9 <= x_7 <= 9
 rho_predicate_2dx14fcdaada9e9bb5e_7 free
 z_&&_2bx4e17493b83d5f40e_8 <= 1
 rho_&&_2bx4e17493b83d5f40e_8 free
 rho_predicate_2dxa75a8bafccdc3cb_8 free
 -9 <= x_8 <= 9
 rho_predicate_2dx14fcdaada9e9bb5e_8 free
 z_&&_2bx4e17493b83d5f40e_9 <= 1
 rho_&&_2bx4e17493b83d5f40e_9 free
 rho_predicate_2dxa75a8bafccdc3cb_9 free
 -9 <= x_9 <= 9
 rho_predicate_2dx14fcdaada9e9bb5e_9 free
 z_&&_2bx4e17493b83d5f40e_10 <= 1
 rho_&&_2bx4e17493b83d5f40e_10 free
 rho_predicate_2dxa75a8bafccdc3cb_10 free
 -9 <= x_10 <= 9
 rho_predicate_2dx14fcdaada9e9bb5e_10 free
 z_F_2bx2eb78af1d3b8f1e8_0 <= 1
 rho_F_2bx2eb78af1d3b8f1e8_0 free
 z_&&_2dx1554a434425b3bb5_11 <= 1
 rho_&&_2dx1554a434425b3bb5_11 free
 rho_predicate_2bxd9200ef4c1e390a_11 free
 -9 <= x_11 <= 9
 rho_predicate_2dx14fcdaada9e9bb5e_11 free
 z_&&_2dx1554a434425b3bb5_12 <= 1
 rho_&&_2dx1554a434425b3bb5_12 free
 rho_predicate_2bxd9200ef4c1e390a_12 free
 -9 <= x_12 <= 9
 rho_predicate_2dx14fcdaada9e9bb5e_12 free
 z_&&_2dx1554a434425b3bb5_13 <= 1
 rho_&&_2dx1554a434425b3bb5_13 free
 rho_predicate_2bxd9200ef4c1e390a_13 free
 -9 <= x_13 <= 9
 rho_predicate_2dx14fcdaada9e9bb5e_13 free
 z_&&_2dx1554a434425b3bb5_14 <= 1
 rho_&&_2dx1554a434425b3bb5_14 free
 rho_predicate_2bxd9200ef4c1e390a_14 free
 -9 <= x_14 <= 9
 rho_predicate_2dx14fcdaada9e9bb5e_14 free
 z_&&_2dx1554a434425b3bb5_15 <= 1
 rho_&&_2dx1554a434425b3bb5_15 free
 rho_predicate_2bxd9200ef4c1e390a_15 free
 -9 <= x_15 <= 9
 rho_predicate_2dx14fcdaada9e9bb5e_15 free
Binaries
 z_predicate_2bxd9200ef4c1e390a_0 z_predicate_2dx22dd95ed78b4d217_0
 z_predicate_2bxd9200ef4c1e390a_1 z_predicate_2dx22dd95ed78b4d217_1
 z_predicate_2bxd9200ef4c1e390a_2 z_predicate_2dx22dd95ed78b4d217_2
 z_predicate_2bxd9200ef4c1e390a_3 z_predicate_2dx22dd95ed78b4d217_3
 z_predicate_2bxd9200ef4c1e390a_4 z_predicate_2dx22dd95ed78b4d217_4
 zhat_&&_2bx5fd6c8e1eefc4d1a_2dx2db193604f764fb_0
 zhat_&&_2bx5fd6c8e1eefc4d1a_2dx2db193604f764fb_1
 zhat_&&_2bx5fd6c8e1eefc4d1a_2dx2db193604f764fb_2
 zhat_&&_2bx5fd6c8e1eefc4d1a_2dx2db193604f764fb_3
 zhat_&&_2bx5fd6c8e1eefc4d1a_2dx2db193604f764fb_4
 z_predicate_2dxa75a8bafccdc3cb_5 z_predicate_2dx14fcdaada9e9bb5e_5
 z_predicate_2dxa75a8bafccdc3cb_6 z_predicate_2dx14fcdaada9e9bb5e_6
 z_predicate_2dxa75a8bafccdc3cb_7 z_predicate_2dx14fcdaada9e9bb5e_7
 z_predicate_2dxa75a8bafccdc3cb_8 z_predicate_2dx14fcdaada9e9bb5e_8
 z_predicate_2dxa75a8bafccdc3cb_9 z_predicate_2dx14fcdaada9e9bb5e_9
 z_predicate_2dxa75a8bafccdc3cb_10 z_predicate_2dx14fcdaada9e9bb5e_10
 zhat_&&_2bx4e17493b83d5f40e_2bxb6d4e08a16f857a_5
 zhat_&&_2bx4e17493b83d5f40e_2bxb6d4e08a16f857a_6
 zhat_&&_2bx4e17493b83d5f40e_2bxb6d4e08a16f857a_7
 zhat_&&_2bx4e17493b83d5f40e_2bxb6d4e08a16f857a_8
 zhat_&&_2bx4e17493b83d5f40e_2bxb6d4e08a16f857a_9
 zhat_&&_2bx4e17493b83d5f40e_2bxb6d4e08a16f857a_10
 z_predicate_2bxd9200ef4c1e390a_11 z_predicate_2dx14fcdaada9e9bb5e_11
 z_predicate_2bxd9200ef4c1e390a_12 z_predicate_2dx14fcdaada9e9bb5e_12
 z_predicate_2bxd9200ef4c1e390a_13 z_predicate_2dx14fcdaada9e9bb5e_13
 z_predicate_2bxd9200ef4c1e390a_14 z_predicate_2dx14fcdaada9e9bb5e_14
 z_predicate_2bxd9200ef4c1e390a_15 z_predicate_2dx14fcdaada9e9bb5e_15
 zhat_&&_2dx1554a434425b3bb5_2bx2eb78af1d3b8f1e8_11
 zhat_&&_2dx1554a434425b3bb5_2bx2eb78af1d3b8f1e8_12
 zhat_&&_2dx1554a434425b3bb5_2bx2eb78af1d3b8f1e8_13
 zhat_&&_2dx1554a434425b3bb5_2bx2eb78af1d3b8f1e8_14
 zhat_&&_2dx1554a434425b3bb5_2bx2eb78af1d3b8f1e8_15
End
